c as-733: Autonomous Systems (from the BGP logs) from January 02 2000 https://snap.stanford.edu/data/as-733.html
p edge 580 610
e 1 2
e 1 54
e 1 56
e 1 87
e 1 89
e 1 100
e 1 111
e 1 122
e 1 125
e 1 142
e 1 145
e 1 147
e 1 8
e 1 214
e 1 222
e 1 82
e 1 227
e 1 231
e 1 232
e 1 235
e 1 236
e 1 272
e 1 282
e 1 212
e 1 246
e 1 305
e 1 313
e 1 325
e 1 335
e 1 341
e 1 345
e 1 356
e 1 137
e 1 366
e 1 35
e 1 374
e 1 386
e 1 390
e 1 403
e 1 411
e 1 416
e 1 433
e 1 439
e 1 440
e 1 444
e 1 104
e 1 466
e 1 490
e 1 130
e 1 51
e 1 383
e 1 361
e 1 519
e 1 542
e 1 549
e 1 561
e 1 287
e 1 575
e 2 72
e 3 4
e 3 67
e 3 157
e 3 330
e 3 188
e 3 425
e 3 92
e 3 446
e 3 311
e 3 553
e 3 555
e 3 566
e 3 3
e 5 6
e 5 9
e 5 14
e 5 15
e 5 25
e 5 30
e 5 37
e 5 12
e 5 50
e 5 52
e 5 53
e 5 57
e 5 64
e 5 23
e 5 101
e 5 109
e 5 114
e 5 115
e 5 118
e 5 119
e 5 121
e 5 133
e 5 135
e 5 140
e 5 148
e 5 152
e 5 33
e 5 160
e 5 173
e 5 197
e 5 205
e 5 208
e 5 209
e 5 218
e 5 219
e 5 220
e 5 224
e 5 241
e 5 254
e 5 142
e 5 256
e 5 265
e 5 268
e 5 273
e 5 275
e 5 296
e 5 299
e 5 301
e 5 308
e 5 314
e 5 318
e 5 99
e 5 327
e 5 328
e 5 329
e 5 340
e 5 343
e 5 360
e 5 157
e 5 365
e 5 387
e 5 396
e 5 399
e 5 412
e 5 413
e 5 418
e 5 423
e 5 429
e 5 432
e 5 447
e 5 448
e 5 459
e 5 461
e 5 248
e 5 465
e 5 468
e 5 469
e 5 475
e 5 476
e 5 477
e 5 480
e 5 484
e 5 492
e 5 493
e 5 496
e 5 499
e 5 507
e 5 153
e 5 513
e 5 524
e 5 530
e 5 532
e 5 338
e 5 177
e 5 544
e 5 547
e 5 551
e 5 554
e 5 557
e 5 558
e 5 560
e 5 563
e 5 567
e 5 568
e 5 570
e 5 572
e 5 573
e 5 576
e 7 8
e 10 11
e 10 23
e 12 13
e 12 55
e 12 74
e 12 127
e 12 179
e 12 110
e 12 207
e 12 18
e 12 226
e 12 245
e 12 255
e 12 194
e 12 297
e 12 315
e 12 319
e 12 376
e 12 379
e 12 369
e 12 404
e 12 498
e 12 515
e 12 541
e 12 569
e 13 237
e 16 17
e 17 127
e 18 19
e 18 20
e 18 47
e 18 58
e 18 63
e 18 66
e 18 71
e 18 26
e 18 94
e 18 95
e 18 105
e 18 112
e 18 134
e 18 136
e 18 139
e 18 149
e 18 165
e 18 189
e 18 198
e 18 201
e 18 223
e 18 229
e 18 234
e 18 242
e 18 257
e 18 269
e 18 281
e 18 289
e 18 294
e 18 298
e 18 323
e 18 331
e 18 283
e 18 344
e 18 350
e 18 368
e 18 371
e 18 375
e 18 79
e 18 392
e 18 42
e 18 420
e 18 361
e 18 445
e 18 454
e 18 479
e 18 482
e 18 388
e 18 518
e 18 525
e 18 528
e 18 538
e 18 550
e 18 172
e 18 571
e 20 21
e 21 22
e 21 196
e 21 38
e 21 385
e 21 393
e 21 520
e 23 24
e 23 158
e 23 166
e 23 177
e 23 183
e 23 104
e 23 193
e 23 191
e 23 303
e 23 391
e 23 397
e 23 210
e 23 409
e 23 415
e 23 431
e 24 462
e 26 27
e 26 184
e 26 353
e 28 29
e 28 244
e 28 90
e 28 322
e 28 473
e 29 535
e 30 346
e 31 32
e 31 75
e 31 178
e 31 216
e 31 225
e 31 91
e 31 264
e 31 279
e 31 410
e 31 427
e 31 453
e 31 467
e 31 457
e 31 144
e 31 293
e 31 580
e 32 78
e 32 170
e 32 154
e 32 174
e 32 215
e 32 258
e 32 300
e 32 293
e 32 436
e 32 84
e 33 34
e 33 42
e 33 405
e 33 494
e 35 36
e 36 204
e 36 79
e 38 39
e 38 116
e 38 193
e 38 233
e 38 373
e 38 522
e 38 531
e 39 68
e 39 190
e 40 41
e 40 46
e 40 73
e 40 120
e 40 151
e 40 175
e 40 176
e 40 217
e 40 221
e 40 261
e 40 266
e 40 274
e 40 369
e 40 378
e 40 381
e 40 43
e 40 414
e 40 371
e 40 559
e 40 579
e 42 43
e 42 65
e 42 97
e 42 129
e 42 172
e 42 230
e 42 251
e 42 277
e 42 285
e 42 291
e 42 309
e 42 326
e 42 332
e 42 334
e 42 342
e 42 380
e 42 422
e 42 474
e 42 483
e 42 202
e 42 545
e 42 45
e 42 552
e 44 45
e 44 51
e 44 292
e 44 401
e 44 486
e 45 163
e 48 49
e 48 110
e 48 302
e 48 485
e 48 495
e 51 252
e 53 150
e 56 434
e 59 60
e 59 70
e 59 108
e 59 113
e 59 126
e 59 156
e 59 182
e 59 228
e 59 307
e 59 329
e 59 394
e 59 400
e 59 470
e 59 471
e 59 502
e 59 320
e 59 521
e 59 523
e 59 565
e 59 577
e 61 62
e 61 188
e 68 69
e 68 86
e 68 358
e 69 407
e 71 250
e 72 278
e 72 533
e 76 77
e 76 104
e 77 88
e 79 80
e 79 81
e 79 132
e 79 153
e 79 237
e 79 135
e 79 215
e 79 166
e 79 316
e 79 352
e 79 354
e 79 430
e 79 435
e 79 438
e 79 452
e 79 511
e 79 329
e 79 527
e 79 424
e 82 83
e 82 96
e 82 395
e 82 501
e 84 85
e 90 91
e 90 509
e 92 93
e 96 347
e 98 99
e 99 295
e 102 103
e 102 104
e 102 304
e 104 141
e 104 238
e 104 310
e 104 382
e 104 456
e 106 107
e 106 202
e 106 359
e 106 443
e 106 455
e 106 564
e 109 159
e 109 417
e 109 419
e 110 110
e 111 481
e 116 117
e 116 317
e 116 460
e 116 441
e 116 534
e 119 168
e 123 124
e 123 183
e 123 428
e 123 431
e 123 342
e 123 529
e 127 128
e 127 146
e 127 472
e 127 500
e 127 536
e 127 543
e 127 416
e 130 131
e 137 138
e 137 194
e 137 267
e 137 276
e 137 311
e 137 367
e 137 426
e 137 366
e 137 574
e 143 144
e 143 169
e 143 312
e 143 324
e 143 408
e 143 421
e 143 473
e 143 510
e 143 143
e 143 271
e 143 562
e 144 206
e 144 478
e 145 199
e 145 578
e 151 286
e 154 155
e 154 363
e 161 162
e 161 251
e 162 186
e 164 165
e 164 349
e 166 497
e 167 168
e 168 240
e 168 337
e 170 171
e 170 195
e 170 200
e 170 488
e 177 351
e 177 449
e 180 181
e 180 293
e 180 336
e 180 348
e 180 540
e 183 183
e 184 185
e 184 280
e 184 355
e 184 357
e 184 398
e 184 464
e 184 548
e 186 187
e 188 437
e 191 192
e 191 333
e 193 451
e 193 503
e 200 243
e 202 203
e 210 211
e 212 213
e 212 306
e 215 556
e 216 489
e 237 370
e 239 239
e 239 513
e 246 247
e 247 450
e 248 249
e 251 406
e 252 253
e 252 487
e 259 260
e 259 535
e 259 505
e 262 263
e 262 290
e 262 504
e 270 271
e 283 284
e 283 546
e 287 288
e 320 321
e 338 339
e 338 338
e 342 372
e 354 516
e 355 539
e 361 362
e 361 377
e 363 364
e 383 384
e 387 517
e 388 389
e 401 402
e 402 463
e 415 512
e 419 419
e 424 424
e 424 514
e 441 442
e 441 491
e 457 458
e 479 506
e 495 537
e 497 508
e 504 505
e 526 527
l 465
t 263 407
